
x = 200;
y = 400;
c = 80000;
n = 494;
w = [400 400 400 400 400 400 324 4 4 4 4 4 4 4 4 4 3600 2809 49 49 49 49 49 49 49 16 9 1 1 1 8464 1156 1156 576 100 100 16 16 4 4 225 225 36 36 9 9 144 25 25 4 4 1 1 324 64 64 4 4 4 4 961 36 36 36 36 36 1 1 1 1 1 1 25 25 25 25 25 25 25 25 25 25 25 25 25 25 16 1 1 1 1 361 225 16 16 16 9 1 1 1 225 225 121 16 16 9 1 1 1 1 1 1 36 36 36 36 36 36 1 1 1 1 1 1 36 1156 1156 100 100 100 16 16 4 4 144 144 100 4 4 4 4 4 9 1 1 1 1 1 1 676 144 144 4 4 4 4 4 4 784 1 1 1 1 1 1 1 1 1 1 1 1 1 1 1 1 1 1 1 1 1 1 1 1 1 1 1 1 36 36 36 36 25 1 1 1 1 1 1296 400 256 16 16 16 16 576 576 64 64 64 4356 1156 1024 4 4 4 4 4 4 4 4 4 4 4 4 4 4 4 4 2304 2304 16 16 16 16 16 16 16 16 16 16 16 16 1024 64 64 64 64 400 400 400 9 9 9 9 9 9 4 1 1 16 16 9 1 1 1 121 400 400 400 400 400 81 81 4 4 4 4 1 1 1024 1024 100 100 100 4 4 4 4 4 225 9 9 9 9 9 64 49 1 1 1 1 1 1 1 400 9 9 9 9 9 9 4 1 1 36 36 36 4 4 4 324 25 25 25 9 4 1 1 169 100 9 9 9 1 1 1 1 1 1 1 16 225 64 49 1 1 1 1 1 1 1 529 529 4 4 4 4 4 4 4 4 4 4 4 1 1 2025 1 1 1 1 1 1 1 1 1 1 1 1 1 1 1 1 1 1 1 1 1 1 1 1 1 1 1 1 1 1 1 1 1 1 1 1 1 1 1 1 1 1 1 1 1 2116 841 289 144 25 25 4 4 1 1 25 25 25 25 4 4 1 1 25 25 16 1 1 1 1 1089 1089 484 121 121 7744 1444 1444 144 144 144 4 4 4 4 4 4 1 1 1 1 1 1 1 1 1 1 1 1 1 1 196 4 4 4 4 4 4 4 3136 49 49 49 49 49 49 49 49 225 225 225 225 9 9 9 9 9];
p = [400 400 400 400 400 400 324 4 4 4 4 4 4 4 4 4 3600 2809 49 49 49 49 49 49 49 16 9 1 1 1 8464 1156 1156 576 100 100 16 16 4 4 225 225 36 36 9 9 144 25 25 4 4 1 1 324 64 64 4 4 4 4 961 36 36 36 36 36 1 1 1 1 1 1 25 25 25 25 25 25 25 25 25 25 25 25 25 25 16 1 1 1 1 361 225 16 16 16 9 1 1 1 225 225 121 16 16 9 1 1 1 1 1 1 36 36 36 36 36 36 1 1 1 1 1 1 36 1156 1156 100 100 100 16 16 4 4 144 144 100 4 4 4 4 4 9 1 1 1 1 1 1 676 144 144 4 4 4 4 4 4 784 1 1 1 1 1 1 1 1 1 1 1 1 1 1 1 1 1 1 1 1 1 1 1 1 1 1 1 1 36 36 36 36 25 1 1 1 1 1 1296 400 256 16 16 16 16 576 576 64 64 64 4356 1156 1024 4 4 4 4 4 4 4 4 4 4 4 4 4 4 4 4 2304 2304 16 16 16 16 16 16 16 16 16 16 16 16 1024 64 64 64 64 400 400 400 9 9 9 9 9 9 4 1 1 16 16 9 1 1 1 121 400 400 400 400 400 81 81 4 4 4 4 1 1 1024 1024 100 100 100 4 4 4 4 4 225 9 9 9 9 9 64 49 1 1 1 1 1 1 1 400 9 9 9 9 9 9 4 1 1 36 36 36 4 4 4 324 25 25 25 9 4 1 1 169 100 9 9 9 1 1 1 1 1 1 1 16 225 64 49 1 1 1 1 1 1 1 529 529 4 4 4 4 4 4 4 4 4 4 4 1 1 2025 1 1 1 1 1 1 1 1 1 1 1 1 1 1 1 1 1 1 1 1 1 1 1 1 1 1 1 1 1 1 1 1 1 1 1 1 1 1 1 1 1 1 1 1 1 2116 841 289 144 25 25 4 4 1 1 25 25 25 25 4 4 1 1 25 25 16 1 1 1 1 1089 1089 484 121 121 7744 1444 1444 144 144 144 4 4 4 4 4 4 1 1 1 1 1 1 1 1 1 1 1 1 1 1 196 4 4 4 4 4 4 4 3136 49 49 49 49 49 49 49 49 225 225 225 225 9 9 9 9 9];
s = [20 20 20 20 20 20 18 2 2 2 2 2 2 2 2 2 60 53 7 7 7 7 7 7 7 4 3 1 1 1 92 34 34 24 10 10 4 4 2 2 15 15 6 6 3 3 12 5 5 2 2 1 1 18 8 8 2 2 2 2 31 6 6 6 6 6 1 1 1 1 1 1 5 5 5 5 5 5 5 5 5 5 5 5 5 5 4 1 1 1 1 19 15 4 4 4 3 1 1 1 15 15 11 4 4 3 1 1 1 1 1 1 6 6 6 6 6 6 1 1 1 1 1 1 6 34 34 10 10 10 4 4 2 2 12 12 10 2 2 2 2 2 3 1 1 1 1 1 1 26 12 12 2 2 2 2 2 2 28 1 1 1 1 1 1 1 1 1 1 1 1 1 1 1 1 1 1 1 1 1 1 1 1 1 1 1 1 6 6 6 6 5 1 1 1 1 1 36 20 16 4 4 4 4 24 24 8 8 8 66 34 32 2 2 2 2 2 2 2 2 2 2 2 2 2 2 2 2 48 48 4 4 4 4 4 4 4 4 4 4 4 4 32 8 8 8 8 20 20 20 3 3 3 3 3 3 2 1 1 4 4 3 1 1 1 11 20 20 20 20 20 9 9 2 2 2 2 1 1 32 32 10 10 10 2 2 2 2 2 15 3 3 3 3 3 8 7 1 1 1 1 1 1 1 20 3 3 3 3 3 3 2 1 1 6 6 6 2 2 2 18 5 5 5 3 2 1 1 13 10 3 3 3 1 1 1 1 1 1 1 4 15 8 7 1 1 1 1 1 1 1 23 23 2 2 2 2 2 2 2 2 2 2 2 1 1 45 1 1 1 1 1 1 1 1 1 1 1 1 1 1 1 1 1 1 1 1 1 1 1 1 1 1 1 1 1 1 1 1 1 1 1 1 1 1 1 1 1 1 1 1 1 46 29 17 12 5 5 2 2 1 1 5 5 5 5 2 2 1 1 5 5 4 1 1 1 1 33 33 22 11 11 88 38 38 12 12 12 2 2 2 2 2 2 1 1 1 1 1 1 1 1 1 1 1 1 1 1 14 2 2 2 2 2 2 2 56 7 7 7 7 7 7 7 7 15 15 15 15 3 3 3 3 3];

